
Gurobi 13.0.1 (win64) logging started Fri Apr 10 01:54:38 2026

Set parameter LogFile to value "C:\Users\jiho\code\cloud_vmp_optimization\experiments\2604-chance-2sp-toy\results\runs\chance_2sp_toy_24vm_ratio_spot_heavy_od5_sp14_bj5_sc10_cap8_avg20_lam010\solver.log"
Set parameter Threads to value 8
Gurobi Optimizer version 13.0.1 build v13.0.1rc0 (win64 - Windows 11+.0 (26200.2))

CPU model: 13th Gen Intel(R) Core(TM) i9-13900K, instruction set [SSE2|AVX|AVX2]
Thread count: 24 physical cores, 32 logical processors, using up to 8 threads

Non-default parameters:
TimeLimit  7200
MIPGap  0.001
Threads  8

Optimize a model with 76956 rows, 42598 columns and 416960 nonzeros (Min)
Model fingerprint: 0xe58bb526
Model has 122 linear objective coefficients
Variable types: 1680 continuous, 40918 integer (40918 binary)
Coefficient statistics:
  Matrix range     [2e-02, 4e+01]
  Objective range  [2e-02, 1e+00]
  Bounds range     [1e+00, 1e+00]
  RHS range        [1e-01, 2e+01]

Presolve removed 5782 rows and 3528 columns
Presolve time: 0.69s
Presolved: 71174 rows, 39070 columns, 405396 nonzeros
Variable types: 0 continuous, 39070 integer (39070 binary)

Deterministic concurrent LP optimizer: primal and dual simplex (primal and dual model)
Showing primal log only...

Root relaxation presolved: 71174 rows, 39070 columns, 405396 nonzeros


Root simplex log...

Iteration    Objective       Primal Inf.    Dual Inf.      Time
   19834    0.0000000e+00   1.113271e+00   3.496017e+08      5s
   23793    9.3000000e+00   0.000000e+00   9.300000e+00      9s
   25660    6.6462327e+00   0.000000e+00   2.130986e+03     10s
   29490    5.6680052e+00   0.000000e+00   1.056742e+03     15s
   33860    4.4154688e+00   0.000000e+00   6.939028e+02     20s
   38230    3.8255315e+00   0.000000e+00   3.467614e+02     25s
   42010    3.5535321e+00   0.000000e+00   9.583483e+02     30s
Warning: Markowitz tolerance tightened to 0.03125
   45210    3.4049753e+00   0.000000e+00   7.419889e+02     35s
   48290    3.2353422e+00   0.000000e+00   2.218746e+02     40s
   51690    3.1522118e+00   0.000000e+00   4.153208e+02     45s
   54810    3.0560604e+00   0.000000e+00   9.492714e+02     50s
   57420    2.9499461e+00   0.000000e+00   3.963736e+02     55s
   59590    2.8759070e+00   0.000000e+00   1.601555e+03     60s
   61920    2.7752349e+00   0.000000e+00   1.120266e+03     65s
   64240    2.6923669e+00   0.000000e+00   1.113724e+03     70s
   66280    2.6252053e+00   0.000000e+00   5.652652e+02     75s
   68280    2.5627686e+00   0.000000e+00   9.713788e+02     80s
   70250    2.5015598e+00   0.000000e+00   5.468823e+02     85s
   72210    2.4475853e+00   0.000000e+00   1.361661e+03     90s
   74110    2.4010790e+00   0.000000e+00   5.627362e+02     95s
   75910    2.3536589e+00   0.000000e+00   2.540869e+03    100s
   77640    2.2944867e+00   0.000000e+00   2.864818e+03    105s
   79070    2.2251522e+00   0.000000e+00   9.798095e+02    111s
   80410    2.1850292e+00   0.000000e+00   5.006398e+03    115s
   81670    2.1460917e+00   0.000000e+00   9.779288e+04    120s
   82930    2.1100026e+00   0.000000e+00   1.264892e+03    125s
   84220    2.0796428e+00   0.000000e+00   1.061514e+03    130s
   85390    2.0560820e+00   0.000000e+00   7.149723e+02    135s
   86560    2.0044640e+00   0.000000e+00   1.110283e+03    140s
   87870    1.9621466e+00   0.000000e+00   3.882705e+03    145s
   89070    1.9430915e+00   0.000000e+00   3.884924e+03    150s
   90260    1.9250303e+00   0.000000e+00   3.057543e+03    155s
   91310    1.9041827e+00   0.000000e+00   1.268470e+03    160s
   92830    1.8900375e+00   0.000000e+00   2.043186e+02    166s
   94070    1.8712421e+00   0.000000e+00   5.803189e+02    170s
Concurrent spin time: 43.41s (can be avoided by choosing Method=3)

Solved with dual simplex

Root relaxation: objective 1.000000e+00, 69887 iterations, 217.75 seconds (147.02 work units)

    Nodes    |    Current Node    |     Objective Bounds      |     Work
 Expl Unexpl |  Obj  Depth IntInf | Incumbent    BestBd   Gap | It/Node Time

     0     0    1.00000    0 24510          -    1.00000      -     -  583s
     0     0    1.41285    0 23468          -    1.41285      -     -  763s
H    0     0                       7.0200000    1.41285  79.9%     -  773s
H    0     0                       7.0000000    1.41285  79.8%     -  773s
H    0     0                       6.1200000    1.41285  76.9%     -  773s
H    0     0                       6.1000000    1.41285  76.8%     -  773s
H    0     0                       6.0800000    1.41285  76.8%     -  773s
H    0     0                       6.0600000    1.41285  76.7%     -  773s
H    0     0                       6.0400000    1.41285  76.6%     -  773s
H    0     0                       6.0000000    1.41285  76.5%     -  773s
H    0     0                       5.0600000    1.41285  72.1%     -  773s
H    0     0                       5.0400000    1.41285  72.0%     -  773s
H    0     0                       5.0200000    1.41285  71.9%     -  773s
H    0     0                       5.0000000    1.41285  71.7%     -  773s
H    0     0                       4.1200000    1.41285  65.7%     -  773s
H    0     0                       4.0600000    1.41285  65.2%     -  773s
     0     0    2.18761    0 13212    4.06000    2.18761  46.1%     - 1190s
     0     0    2.18761    0 15586    4.06000    2.18761  46.1%     - 1326s
     0     0    2.21309    0 13784    4.06000    2.21309  45.5%     - 1517s
     0     0    3.00000    0 13124    4.06000    3.00000  26.1%     - 1626s
     0     0    3.00000    0 12493    4.06000    3.00000  26.1%     - 1636s
     0     0    3.00000    0 12694    4.06000    3.00000  26.1%     - 1641s
     0     0    3.00000    0 12366    4.06000    3.00000  26.1%     - 1845s
H    0     0                       4.0400000    3.00000  25.7%     - 1974s
     0     0    3.00000    0 13683    4.04000    3.00000  25.7%     - 1990s
     0     0    3.00000    0 13653    4.04000    3.00000  25.7%     - 2100s
     0     0    3.00000    0 14077    4.04000    3.00000  25.7%     - 2146s
     0     0    3.00000    0 14067    4.04000    3.00000  25.7%     - 2175s
     0     0    3.00000    0 14065    4.04000    3.00000  25.7%     - 2354s
     0     0    3.00000    0 13604    4.04000    3.00000  25.7%     - 2485s
     0     0    3.00000    0 13482    4.04000    3.00000  25.7%     - 2564s
     0     0    3.00000    0 13754    4.04000    3.00000  25.7%     - 2616s
     0     0    3.00000    0 12806    4.04000    3.00000  25.7%     - 2640s
     0     0    3.00000    0 13877    4.04000    3.00000  25.7%     - 2661s
     0     0    3.00000    0 13632    4.04000    3.00000  25.7%     - 2684s
     0     0    3.00000    0 13459    4.04000    3.00000  25.7%     - 2706s
     0     0    3.00000    0 14108    4.04000    3.00000  25.7%     - 2717s
     0     0    3.00000    0 13893    4.04000    3.00000  25.7%     - 2794s
     0     0    3.00000    0 13181    4.04000    3.00000  25.7%     - 2885s
     0     0    3.00000    0 13462    4.04000    3.00000  25.7%     - 2951s
     0     0    3.00000    0 13998    4.04000    3.00000  25.7%     - 2991s
     0     0    3.00000    0 13940    4.04000    3.00000  25.7%     - 3026s
     0     0    3.00000    0 13637    4.04000    3.00000  25.7%     - 3109s
     0     0    3.00000    0 13637    4.04000    3.00000  25.7%     - 3109s
     0     0    3.00000    0 13585    4.04000    3.00000  25.7%     - 3112s
     0     2    3.00000    0 13585    4.04000    3.00000  25.7%     - 3189s
     1     2 infeasible    1         4.04000    3.00000  25.7%  3248 3325s
     3     4    3.00000    2 6354    4.04000    3.00000  25.7% 27478 3340s
     5     8    3.00000    3 6196    4.04000    3.00000  25.7% 20061 3386s
     9    12    3.00000    4 6497    4.04000    3.00000  25.7% 20525 3489s
    13    13    3.00000    5 6257    4.04000    3.00000  25.7% 24634 3551s
    14    21    3.00000    6 6782    4.04000    3.00000  25.7% 23634 3582s
    22    31    3.00000    7 6298    4.04000    3.00000  25.7% 20712 3693s
    32    93    3.00000    8 6450    4.04000    3.00000  25.7% 22834 3851s
    94   133    3.00000   13 5357    4.04000    3.00000  25.7% 12176 4119s
   136   217    3.00420   19 4896    4.04000    3.00000  25.7% 12471 4567s
   224   284    3.01766   20 4225    4.04000    3.00000  25.7% 14543 5359s
H  251   284                       4.0000000    3.00000  25.0% 15428 5359s
   301   532 infeasible   24         4.00000    3.00000  25.0% 15388 6533s
   688   525    3.32753   38 13212    4.00000    3.00000  25.0% 10284 6911s
   690   526    3.27173   42 8497    4.00000    3.00000  25.0% 10254 7112s

Cutting planes:
  Gomory: 18
  MIR: 138
  StrongCG: 4
  Flow cover: 5
  RLT: 450

Explored 690 nodes (8171050 simplex iterations) in 7200.12 seconds (7489.15 work units)
Thread count was 8 (of 32 available processors)

Solution count 10: 4 4.04 4.06 ... 6.04

Time limit reached
Best objective 4.000000000000e+00, best bound 3.000000000000e+00, gap 25.0000%
